(set-logic QF_LIA)
(set-info :ran/ran2.smt2)
(set-info :smt-lib-version 2.0)
(declare-fun x1 () Int)
(declare-fun x2 () Int)
(declare-fun x3 () Int)
(declare-fun x4 () Int)
(assert (<= (+ (* 2 x1) (* (- 3) x2) (* 9 x3) (* 10 x4) ) (- 668)))
(assert (<= (+ (* 5 x1) (* (- 9) x2) (* 7 x3) (* (- 10) x4) ) 948))
(assert (<= (+ (* (- 9) x1) (* (- 10) x2) (* 8 x3) (* 0 x4) ) 777))
(assert (<= (+ (* 8 x1) (* 4 x2) (* (- 8) x3) (* (- 2) x4) ) 864))
(assert (<= (+ (* (- 2) x1) (* 3 x2) (* 10 x3) (* (- 3) x4) ) 724))
(assert (<= (+ (* 3 x1) (* (- 10) x2) (* (- 2) x3) (* 6 x4) ) 133))
(assert (<= (+ (* 10 x1) (* (- 3) x2) (* 9 x3) (* 9 x4) ) (- 423)))
(assert (<= (+ (* (- 5) x1) (* 1 x2) (* (- 4) x3) (* (- 9) x4) ) 758))
(assert (<= (+ (* 1 x1) (* 0 x2) (* 0 x3) (* 0 x4) ) 1000))
(assert (<= (+ (* (- 1) x1) (* 0 x2) (* 0 x3) (* 0 x4) ) 1000))
(assert (<= (+ (* 0 x1) (* 1 x2) (* 0 x3) (* 0 x4) ) 1000))
(assert (<= (+ (* 0 x1) (* (- 1) x2) (* 0 x3) (* 0 x4) ) 1000))
(assert (<= (+ (* 0 x1) (* 0 x2) (* 1 x3) (* 0 x4) ) 1000))
(assert (<= (+ (* 0 x1) (* 0 x2) (* (- 1) x3) (* 0 x4) ) 1000))
(assert (<= (+ (* 0 x1) (* 0 x2) (* 0 x3) (* 1 x4) ) 1000))
(assert (<= (+ (* 0 x1) (* 0 x2) (* 0 x3) (* (- 1) x4) ) 1000))
